200 200
28 7
9 8
8 6
59 22
23 10
7 5
27 8
10 45
29 32
4 13
25 57
3 14
4 3
31 11
18 41
5 9
26 8
13 18
19 24
7 10
20 14
11 18
3 19
4 2
4 14
8 21
20 13
13 12
37 8
20 6
30 10
9 31
12 59
23 70
22 38
7 26
4 1
7 25
20 40
37 7
4 23
32 27
5 16
9 11
15 6
26 17
65 29
24 25
6 21
15 4
23 70
19 57
13 3
29 8
20 18
6 12
7 5
36 7
23 59
18 50
1 3
14 40
7 46
5 30
7 11
16 9
14 5
8 4
6 14
35 11
24 10
8 25
6 6
9 7
4 14
7 12
2 7
6 5
2 9
16 18
5 13
14 86
25 9
62 22
49 8
47 19
7 14
24 20
18 25
6 21
41 41
69 18
2 12
22 5
40 7
117 20
28 73
